experiment/data/lkh-res/Vrp-Set-X-n322/Vrp-Set-X-n322-lkh/0.lkh1.vrp
NAME : 0
COMMENT : CVRP Instance
TYPE : CVRP
DIMENSION : 322
EDGE_WEIGHT_TYPE : EUC_2D
CAPACITY : 868
NODE_COORD_SECTION
1	50000	50000
2	73700	45000
3	23500	78900
4	34000	23400
5	34600	32000
6	40600	30900
7	55600	63600
8	87200	92300
9	93700	8300
10	900	32100
11	55800	1800
12	6300	83300
13	25000	50900
14	14300	19200
15	62400	28600
16	36400	11700
17	33200	95300
18	23500	14200
19	59000	43000
20	30300	69200
21	93600	66500
22	3900	41000
23	24700	58100
24	98600	73900
25	1100	28300
26	13800	74700
27	83700	51100
28	59600	20600
29	21800	33900
30	44300	92200
31	55500	13300
32	89600	30600
33	41500	75200
34	69100	21600
35	5100	0
36	72600	1900
37	16600	33300
38	95100	93200
39	92800	80700
40	50500	59000
41	23600	28400
42	11500	88200
43	23800	88700
44	72900	2600
45	9400	69700
46	40900	89900
47	99300	71500
48	47300	60700
49	41400	5500
50	88400	32700
51	65100	40700
52	89100	37200
53	57000	73300
54	91900	52900
55	62900	22000
56	71100	63000
57	14100	49200
58	72000	38200
59	79400	5100
60	74500	45100
61	40900	99000
62	82500	78100
63	96600	93800
64	37800	17500
65	85900	26900
66	59600	13100
67	41900	55700
68	7700	90800
69	67900	26800
70	72600	86000
71	38200	72800
72	88500	1500
73	25800	31300
74	73400	90500
75	53300	91200
76	92400	63600
77	69400	62100
78	46900	22300
79	50700	70700
80	89200	16800
81	28100	80000
82	60700	28500
83	38800	35400
84	56800	78100
85	2200	34800
86	15300	57900
87	21800	23600
88	30800	90400
89	11900	15400
90	93900	10500
91	48900	37400
92	54700	73600
93	48000	100000
94	12400	88300
95	64700	93000
96	29500	74100
97	21300	5300
98	70100	44600
99	58900	70800
100	64400	14700
101	13300	37700
102	98300	34300
103	16900	65100
104	26200	45000
105	25500	42200
106	11500	64000
107	69300	34400
108	89600	91000
109	29800	53100
110	57300	41600
111	41600	51200
112	87000	5000
113	18500	43600
114	65600	26800
115	5300	52200
116	58700	16500
117	54200	76200
118	99500	80900
119	26600	87800
120	2700	81200
121	19600	52200
122	4500	16400
123	17400	72900
124	25200	31100
125	68100	62100
126	59400	47800
127	84800	36100
128	89700	25300
129	72900	35400
130	25500	41000
131	81100	70300
132	67700	99100
133	78100	90900
134	97100	63200
135	54000	82400
136	88700	14400
137	47500	86000
138	50900	33600
139	96700	43300
140	89700	9800
141	15700	67600
142	97100	72700
143	97200	38100
144	65800	50400
145	37500	21400
146	28000	52600
147	89500	15800
148	19600	77900
149	37900	22300
150	69200	47000
151	2200	39500
152	11900	60400
153	62200	84300
154	28900	81100
155	9800	36500
156	11100	42600
157	26100	10100
158	48300	81800
159	82000	48000
160	43300	96100
161	65600	42100
162	51100	27300
163	33400	79400
164	42600	68600
165	87000	11200
166	94100	97800
167	74400	49800
168	700	34600
169	16800	87700
170	16600	24400
171	60400	43000
172	17600	45200
173	52200	30600
174	91200	40600
175	42300	56400
176	50500	77900
177	10100	38300
178	72900	30700
179	16200	51500
180	64700	86900
181	78400	98300
182	49600	81100
183	73600	3900
184	83300	52900
185	64600	36700
186	92200	29400
187	51300	53500
188	37300	33100
189	47100	69400
190	3900	14900
191	81300	53800
192	15300	11500
193	24400	50500
194	71600	28600
195	40900	22800
196	14000	48400
197	65200	23900
198	14100	62800
199	3000	92400
200	87700	30700
201	58600	72300
202	33600	61500
203	85600	58400
204	98400	22100
205	64100	67100
206	64800	70400
207	1900	30900
208	66100	12500
209	61400	19400
210	25300	86400
211	10600	84100
212	18700	68700
213	500	28900
214	65700	8300
215	65800	5800
216	41900	83900
217	51900	34700
218	19100	86400
219	66600	48600
220	28800	27600
221	56200	64600
222	51600	72500
223	7500	78500
224	30900	96600
225	74300	85600
226	12100	69800
227	28600	25800
228	7000	63500
229	37600	53900
230	82400	83400
231	65000	35000
232	74200	27700
233	97700	64700
234	26800	69800
235	97300	14500
236	56900	65500
237	76500	2200
238	42700	86900
239	1100	86900
240	37700	79300
241	16200	89700
242	10200	44400
243	97900	38600
244	6900	48300
245	29400	39500
246	42400	53600
247	3700	70500
248	12600	78200
249	49000	3000
250	34800	77100
251	80800	46900
252	10700	51200
253	78200	20700
254	16100	79300
255	85900	46900
256	14800	76300
257	40300	72300
258	97800	76000
259	21400	13200
260	46700	38700
261	29200	26200
262	23800	84600
263	85300	2700
264	85500	50600
265	59100	90200
266	21300	74200
267	20300	36400
268	18300	300
269	14300	60800
270	50100	15200
271	64900	49200
272	90400	3100
273	99700	74100
274	52700	29900
275	2600	40200
276	54300	50600
277	90200	54800
278	4700	41900
279	12500	22600
280	20600	60800
281	81100	66800
282	64300	26500
283	18900	73600
284	7900	28700
285	38200	63000
286	22500	60400
287	41200	84300
288	92400	75600
289	47400	35600
290	53300	72100
291	44500	10100
292	57900	99400
293	65200	65800
294	63300	91400
295	88900	20600
296	46400	24300
297	68000	73500
298	42000	99800
299	79800	49000
300	7500	51800
301	2700	68000
302	11800	80400
303	18100	42800
304	48900	9100
305	36700	97700
306	77700	67900
307	50100	13700
308	85600	600
309	7500	99900
310	77700	98400
311	17100	87400
312	90900	56900
313	73000	50900
314	32600	59600
315	5900	53300
316	45500	85300
317	61200	16300
318	95900	40900
319	98700	15400
320	88300	19500
321	20700	600
322	3900	83100
DEMAND_SECTION
1	0
2	61
3	71
4	83
5	85
6	85
7	99
8	63
9	64
10	50
11	56
12	91
13	87
14	75
15	70
16	57
17	86
18	50
19	89
20	75
21	72
22	83
23	74
24	76
25	53
26	93
27	97
28	69
29	61
30	76
31	93
32	55
33	92
34	83
35	92
36	63
37	61
38	53
39	100
40	94
41	74
42	71
43	95
44	74
45	96
46	75
47	91
48	82
49	50
50	84
51	55
52	74
53	73
54	86
55	52
56	81
57	73
58	92
59	83
60	64
61	66
62	93
63	97
64	88
65	67
66	91
67	66
68	98
69	88
70	85
71	73
72	68
73	60
74	73
75	53
76	58
77	62
78	64
79	57
80	81
81	57
82	54
83	73
84	85
85	52
86	65
87	64
88	100
89	60
90	97
91	62
92	92
93	84
94	86
95	81
96	88
97	50
98	87
99	89
100	50
101	72
102	56
103	90
104	78
105	57
106	56
107	77
108	59
109	95
110	68
111	91
112	93
113	89
114	63
115	87
116	71
117	68
118	99
119	78
120	72
121	100
122	60
123	80
124	68
125	71
126	83
127	68
128	96
129	75
130	72
131	53
132	86
133	71
134	95
135	69
136	60
137	98
138	75
139	62
140	89
141	50
142	64
143	60
144	56
145	77
146	63
147	91
148	97
149	78
150	60
151	65
152	87
153	73
154	83
155	81
156	55
157	85
158	59
159	77
160	99
161	73
162	100
163	58
164	67
165	94
166	75
167	82
168	55
169	63
170	78
171	53
172	62
173	88
174	79
175	88
176	60
177	55
178	55
179	81
180	75
181	90
182	79
183	97
184	84
185	64
186	66
187	61
188	68
189	85
190	94
191	78
192	88
193	78
194	69
195	97
196	59
197	97
198	76
199	99
200	51
201	87
202	68
203	97
204	94
205	64
206	89
207	93
208	94
209	57
210	91
211	53
212	71
213	61
214	81
215	91
216	51
217	54
218	63
219	65
220	71
221	77
222	60
223	92
224	51
225	72
226	84
227	64
228	76
229	89
230	72
231	89
232	88
233	52
234	97
235	86
236	97
237	88
238	69
239	96
240	97
241	64
242	72
243	52
244	100
245	50
246	92
247	70
248	79
249	78
250	74
251	90
252	78
253	71
254	88
255	89
256	78
257	89
258	94
259	56
260	81
261	78
262	92
263	74
264	54
265	92
266	65
267	68
268	86
269	65
270	99
271	67
272	57
273	60
274	100
275	74
276	73
277	65
278	89
279	53
280	55
281	67
282	51
283	78
284	53
285	73
286	50
287	89
288	57
289	59
290	51
291	68
292	90
293	71
294	60
295	73
296	89
297	88
298	76
299	88
300	75
301	56
302	52
303	76
304	65
305	78
306	75
307	63
308	56
309	64
310	98
311	61
312	70
313	54
314	96
315	77
316	59
317	92
318	77
319	63
320	79
321	69
322	58
DEPOT_SECTION
1
-1
EOF
