experiment/data/lkh-res/Vrp-Set-X-n322/Vrp-Set-X-n322-lkh/0.lkh1.tour
NAME : 0.3025329.tour
COMMENT : Length = 3025329
COMMENT : Found by LKH-3 [Keld Helsgaun] Tue Apr  9 06:42:26 2024
TYPE : TOUR
DIMENSION : 349
TOUR_SECTION
1
276
126
271
144
219
150
60
2
98
161
19
110
331
283
248
211
94
241
169
311
218
262
154
81
96
341
20
234
266
148
254
256
26
123
212
314
349
187
7
221
236
99
201
206
205
293
77
125
347
65
186
128
295
320
80
147
136
140
165
253
335
34
59
237
183
44
36
215
214
208
100
209
329
297
70
225
133
181
310
74
180
153
84
290
330
48
189
33
240
163
250
71
257
164
285
67
328
202
103
141
226
45
247
301
228
106
198
280
23
324
112
263
308
72
272
9
90
235
319
204
32
200
344
41
170
14
279
284
25
213
207
10
168
85
155
37
327
303
156
242
244
278
22
275
151
177
101
267
245
348
83
188
5
261
227
220
73
124
29
130
105
104
336
167
299
27
264
54
277
312
203
184
191
313
340
82
15
282
197
55
28
274
173
138
289
91
260
333
216
287
238
46
305
17
224
88
119
43
210
337
157
97
321
268
35
190
122
89
192
259
18
87
332
6
195
149
4
145
64
16
49
291
78
296
345
113
172
196
57
252
300
115
315
152
269
86
286
343
251
159
255
174
139
318
243
143
102
50
52
127
342
3
42
68
309
199
239
120
322
12
223
302
326
40
79
222
176
182
158
316
137
135
117
92
53
339
217
162
270
307
304
249
11
31
66
317
116
325
111
13
193
179
121
146
109
229
175
246
323
56
281
288
258
273
24
142
47
233
134
21
76
334
171
51
58
129
107
178
232
194
69
114
231
185
346
30
160
61
298
93
292
132
95
294
265
75
338
62
230
8
108
166
63
38
118
39
131
306
-1
EOF
